Data path: /scratch/opt/lxu/CFLG/benchmarks/tree_B
Instance: treeB.100.15
Result path: /scratch/opt/lxu/CFLG/results/tree_B
Solver: Gurobi
Time limit: 7200
Formulation: LEFPAI
Cover: Large
julia --project=. src/main.jl /scratch/opt/lxu/CFLG/benchmarks/tree_B treeB.100.15 /scratch/opt/lxu/CFLG/results/tree_B Gurobi 7200 LEFPAI Large
The latest version of Julia in the `release` channel is 1.11.6+0.x64.linux.gnu. You currently have `1.11.4+0.x64.linux.gnu` installed. Run:

  juliaup update

in your terminal shell to install Julia 1.11.6+0.x64.linux.gnu and update the `release` channel to that version.
/scratch/opt/lxu/CFLG/benchmarks/tree_B Gurobi 7200.0 /scratch/opt/lxu/CFLG/results/tree_B treeB.100.15 LEFPAI Large
/scratch/opt/lxu/CFLG/benchmarks/tree_B/treeB.100.15

 read graph
data loaded

problem_graph/original graph: node: 100/100 edge: 114/114 dlt: 2.9589897163834475 break_avg_len: 1.4794948581917238 break_max_len: 1.9853213789438122Vbar/V, Ebar/E(52, 100, 66, 114)
Set parameter TokenServer to value "solice01.zib.de"
Set parameter Threads to value 1
Set parameter OutputFlag to value 1
Gurobi Optimizer version 12.0.1 build v12.0.1rc0 (linux64 - "Debian GNU/Linux 12 (bookworm)")

CPU model: Intel(R) Xeon(R) Gold 5122 CPU @ 3.60GHz, instruction set [SSE2|AVX|AVX2|AVX512]
Thread count: 8 physical cores, 16 logical processors, using up to 1 threads

Non-default parameters:
Threads  1

Optimize a model with 164 rows, 267 columns and 445 nonzeros
Model fingerprint: 0xf680431d
Coefficient statistics:
  Matrix range     [1e+00, 1e+00]
  Objective range  [1e+00, 1e+00]
  Bounds range     [1e+00, 1e+00]
  RHS range        [1e+00, 1e+00]
Presolve removed 80 rows and 97 columns
Presolve time: 0.00s
Presolved: 84 rows, 170 columns, 268 nonzeros

Iteration    Objective       Primal Inf.    Dual Inf.      Time
       0    8.9000000e+01   5.000000e+01   0.000000e+00      0s
      39    5.2000000e+01   0.000000e+00   0.000000e+00      0s

Solved in 39 iterations and 0.00 seconds (0.00 work units)
Optimal objective  5.200000000e+01

User-callback calls 118, time in user-callback 0.00 sec
elapsed CPU time: 1.322958 seconds
Set parameter TokenServer to value "solice01.zib.de"
Set parameter Threads to value 1
Set parameter OutputFlag to value 1
Set parameter MIPGap to value 0.0001
Set parameter TimeLimit to value 7198.677042

 more cuts: false 2.9589897163834475 false
is_attach:trueformulation:LEFPAI0 89 75

 model loaded

Gurobi Optimizer version 12.0.1 build v12.0.1rc0 (linux64 - "Debian GNU/Linux 12 (bookworm)")

CPU model: Intel(R) Xeon(R) Gold 5122 CPU @ 3.60GHz, instruction set [SSE2|AVX|AVX2|AVX512]
Thread count: 8 physical cores, 16 logical processors, using up to 1 threads

Non-default parameters:
TimeLimit  7198.677042
Threads  1

Optimize a model with 1821 rows, 1455 columns and 4804 nonzeros
Model fingerprint: 0x883c9fe5
Model has 1024 simple general constraints
  1024 INDICATOR
Variable types: 253 continuous, 1202 integer (1202 binary)
Coefficient statistics:
  Matrix range     [3e-02, 3e+00]
  Objective range  [1e+00, 1e+00]
  Bounds range     [3e-02, 3e+00]
  RHS range        [3e-02, 4e+00]
  GenCon rhs range [5e-03, 3e+00]
  GenCon coe range [1e+00, 1e+00]
Presolve removed 291 rows and 571 columns
Presolve time: 0.09s
Presolved: 1530 rows, 884 columns, 7980 nonzeros
Variable types: 126 continuous, 758 integer (758 binary)
Found heuristic solution: objective 60.0000000
Found heuristic solution: objective 48.0000000
Found heuristic solution: objective 47.0000000

Root relaxation: objective 1.808317e+01, 913 iterations, 0.02 seconds (0.03 work units)

    Nodes    |    Current Node    |     Objective Bounds      |     Work
 Expl Unexpl |  Obj  Depth IntInf | Incumbent    BestBd   Gap | It/Node Time

     0     0   18.08317    0  129   47.00000   18.08317  61.5%     -    0s
H    0     0                      36.0000000   18.08317  49.8%     -    0s
H    0     0                      27.0000000   18.08317  33.0%     -    0s
H    0     0                      24.0000000   18.08317  24.7%     -    0s
H    0     0                      23.0000000   18.08317  21.4%     -    0s
     0     0   18.56109    0  173   23.00000   18.56109  19.3%     -    0s
     0     0   19.00000    0  149   23.00000   19.00000  17.4%     -    0s
     0     0   20.00000    0  126   23.00000   20.00000  13.0%     -    0s
     0     0   20.00000    0  110   23.00000   20.00000  13.0%     -    0s
     0     0   20.00000    0  137   23.00000   20.00000  13.0%     -    0s
     0     0   20.00000    0  139   23.00000   20.00000  13.0%     -    0s
     0     0   20.00000    0   24   23.00000   20.00000  13.0%     -    0s
     0     0   20.00000    0   91   23.00000   20.00000  13.0%     -    0s
     0     0   20.00000    0   33   23.00000   20.00000  13.0%     -    0s
     0     0   20.00000    0   65   23.00000   20.00000  13.0%     -    0s
     0     0   20.00000    0   22   23.00000   20.00000  13.0%     -    0s
H    0     0                      21.0000000   20.00000  4.76%     -    0s
     0     0   20.00000    0  101   21.00000   20.00000  4.76%     -    0s
     0     0   20.00000    0   77   21.00000   20.00000  4.76%     -    0s
     0     0   20.00000    0    6   21.00000   20.00000  4.76%     -    0s
     0     0   20.00000    0   38   21.00000   20.00000  4.76%     -    0s
     0     0   20.00000    0   12   21.00000   20.00000  4.76%     -    0s
     0     0   20.00000    0   10   21.00000   20.00000  4.76%     -    0s
     0     0   20.00000    0  114   21.00000   20.00000  4.76%     -    0s
     0     0   20.00000    0   91   21.00000   20.00000  4.76%     -    0s
     0     0   20.00000    0   83   21.00000   20.00000  4.76%     -    0s
     0     0   20.00000    0   84   21.00000   20.00000  4.76%     -    0s
     0     0   20.00000    0   26   21.00000   20.00000  4.76%     -    0s
     0     0   20.00000    0   26   21.00000   20.00000  4.76%     -    0s
     0     0   20.00000    0   20   21.00000   20.00000  4.76%     -    0s
     0     0   20.00000    0   11   21.00000   20.00000  4.76%     -    0s
     0     0   20.00000    0   11   21.00000   20.00000  4.76%     -    0s
     0     0   20.00000    0   36   21.00000   20.00000  4.76%     -    0s
     0     0   20.00000    0   36   21.00000   20.00000  4.76%     -    0s
     0     0   20.00000    0   10   21.00000   20.00000  4.76%     -    0s
     0     0   20.00000    0   10   21.00000   20.00000  4.76%     -    0s
     0     2   20.00000    0   10   21.00000   20.00000  4.76%     -    0s

Cutting planes:
  Learned: 1
  Gomory: 2
  Cover: 8
  Implied bound: 21
  Clique: 15
  MIR: 14
  StrongCG: 1
  Flow cover: 1
  Zero half: 2
  RLT: 5
  Relax-and-lift: 5
  BQP: 1

Explored 19 nodes (10597 simplex iterations) in 0.87 seconds (0.58 work units)
Thread count was 1 (of 16 available processors)

Solution count 8: 21 23 24 ... 60

Optimal solution found (tolerance 1.00e-04)
Best objective 2.100000000000e+01, best bound 2.100000000000e+01, gap 0.0000%

User-callback calls 1600, time in user-callback 0.00 sec

 sepatime0 0 0
21.0
Stat(MathOptInterface.OPTIMAL, 21.0, 21.0, 0.0, 0.0, 1.322958, 0.8672988414764404, 19, Main.CFLG.LEFPAI, "", #undef)
